networks/zoo_7_5/zoo_7_5-lower.txt
Number of groups: 3
Flow 1: {2 1 0} {1 5 0} 
Flow 2: {3 1 0} Flow 3: {3 2 0} {2 6 0} 
Flow 4: {4 1 0} Flow 5: {1 3 0} {3 7 0} 
Time taken running everything: 1 seconds
