networks/zoo_7_5/zoo_7_5-lower.sol
<?xml version = "1.0" encoding="UTF-8" standalone="yes"?>
<CPLEXSolution version="1.2">
 <header
   problemName="networks/zoo_7_5/zoo_7_5-lower.lp"
   solutionName="incumbent"
   solutionIndex="-1"
   objectiveValue="3"
   solutionTypeValue="3"
   solutionTypeString="primal"
   solutionStatusValue="101"
   solutionStatusString="integer optimal solution"
   solutionMethodString="mip"
   primalFeasible="1"
   dualFeasible="1"
   MIPNodes="0"
   MIPIterations="0"
   writeLevel="3"/>
 <quality
   epInt="1.0000000000000001e-05"
   epRHS="9.9999999999999995e-07"
   maxIntInfeas="0"
   maxPrimalInfeas="0"
   maxX="1"
   maxSlack="1"/>
 <variables>
  <variable name="Y(1,1)" index="0" value="1"/>
  <variable name="Y(3,2)" index="15" value="1"/>
  <variable name="Y(5,3)" index="30" value="1"/>
  <variable name="X(1,3,5)" index="39" value="1"/>
  <variable name="X(1,5,1)" index="40" value="1"/>
  <variable name="X(2,1,1)" index="45" value="1"/>
  <variable name="X(2,6,3)" index="52" value="1"/>
  <variable name="X(3,1,2)" index="56" value="1"/>
  <variable name="X(3,2,3)" index="62" value="1"/>
  <variable name="X(3,7,5)" index="69" value="1"/>
  <variable name="X(4,1,4)" index="73" value="1"/>
 </variables>
</CPLEXSolution>
